50

100 32 307
99 5 301
99 39 298
97 3 354
97 22 345
96 26 360
96 38 315
96 18 311
93 15 348
93 11 344
91 10 279
84 35 268
83 31 334
81 10 306
79 8 251
78 22 303
77 29 301
74 26 316
71 8 313
67 10 316
66 26 243
63 15 246
62 8 343
61 20 354
61 2 317
61 29 344
59 14 240
59 15 340
59 24 315
58 8 289
57 18 345
56 6 339
54 12 344
54 13 291
53 15 301
53 23 256
51 22 181
50 24 345
49 22 358
48 1 265
45 22 195
45 3 217
45 11 263
40 2 323
40 15 175
39 18 121
39 2 235
34 10 299
32 1 309
30 8 258
